% seed = 0

mint = 34;
% maxt = 185;

nActs = 92;
dur = [0,3,4,2,4,3,1,2,3,2,2,2,1,3,6,1,2,2,1,2,1,2,2,3,2,2,3,1,3,1,4,2,1,2,1,2,2,1,2,2,4,2,1,1,4,2,1,2,2,1,1,1,3,3,3,2,2,1,2,3,2,2,1,2,3,1,2,1,2,2,3,2,1,2,1,2,3,2,4,2,2,1,2,2,1,1,2,2,2,2,2,0];

nSkills = 12;
sreq = [| 0,0,0,0,0,0,0,0,0,0,0,0,
	| 0,0,0,0,0,1,0,1,1,0,1,0,
	| 0,0,0,0,0,0,1,0,1,0,0,0,
	| 0,0,0,0,0,0,0,2,1,0,1,0,
	| 0,0,1,0,0,3,1,0,0,0,0,0,
	| 0,0,0,0,0,2,0,0,1,0,0,0,
	| 0,0,1,0,0,1,0,1,0,0,0,0,
	| 0,0,0,1,1,1,0,1,2,0,1,0,
	| 0,0,1,0,0,0,2,0,3,0,0,0,
	| 0,0,0,0,0,0,0,0,0,0,1,0,
	| 0,0,0,1,0,1,0,1,0,0,1,0,
	| 0,0,2,0,0,1,0,1,2,0,1,0,
	| 0,0,0,0,0,0,0,1,0,0,1,0,
	| 0,0,0,0,0,1,1,0,1,1,1,0,
	| 0,1,0,0,0,1,1,0,2,1,0,0,
	| 0,0,1,1,0,2,1,2,0,0,0,1,
	| 0,0,0,0,0,1,0,0,1,0,1,0,
	| 0,0,0,0,0,2,0,0,1,0,0,0,
	| 0,0,0,0,1,3,0,1,2,0,0,0,
	| 0,0,1,1,0,0,0,0,0,0,0,0,
	| 0,0,1,0,1,0,0,1,0,0,1,0,
	| 0,0,0,0,0,0,0,0,1,0,1,0,
	| 0,0,0,0,0,0,0,1,0,0,2,0,
	| 0,1,0,1,0,0,0,0,0,0,0,0,
	| 0,0,1,1,0,1,0,2,1,0,0,0,
	| 0,0,0,0,1,0,2,1,3,0,0,0,
	| 0,0,0,0,1,0,0,0,1,0,0,0,
	| 0,0,0,0,0,0,0,0,1,0,0,0,
	| 0,1,0,1,1,1,0,0,0,0,0,0,
	| 0,0,0,0,0,1,0,0,0,0,0,0,
	| 0,0,0,0,0,0,0,1,1,0,0,0,
	| 0,1,0,0,0,1,0,0,2,1,0,0,
	| 0,0,1,0,0,1,0,1,1,0,1,0,
	| 0,0,1,0,1,1,0,0,2,0,0,0,
	| 0,0,0,0,0,1,0,0,1,0,0,0,
	| 0,0,1,1,0,1,1,1,1,0,1,0,
	| 0,0,1,1,0,0,0,0,1,0,0,0,
	| 0,0,1,1,2,1,0,0,2,0,0,0,
	| 0,0,0,0,0,1,1,0,1,1,2,0,
	| 0,0,1,0,0,1,0,0,0,0,1,0,
	| 0,1,0,0,0,0,0,0,0,0,1,0,
	| 0,0,1,1,0,3,0,0,0,0,1,0,
	| 0,0,1,0,0,1,1,1,1,0,0,0,
	| 0,0,2,0,0,1,0,0,1,0,3,0,
	| 0,0,0,0,0,1,0,0,3,0,1,0,
	| 0,0,0,1,0,0,0,1,1,0,0,0,
	| 0,0,1,0,1,1,0,0,1,0,2,0,
	| 0,0,0,0,0,0,0,1,0,0,0,0,
	| 0,1,0,0,2,0,0,1,0,1,0,0,
	| 0,0,0,1,0,2,0,0,0,0,1,0,
	| 0,0,0,0,0,0,1,0,2,0,0,0,
	| 0,1,1,1,1,0,0,0,0,0,0,0,
	| 0,0,0,1,0,0,2,1,1,1,1,0,
	| 0,0,0,0,1,1,0,1,1,0,0,0,
	| 0,0,0,0,0,0,0,0,1,0,0,0,
	| 0,0,0,0,0,1,0,0,0,0,2,0,
	| 0,0,1,0,0,0,1,0,0,0,0,0,
	| 0,0,1,0,1,0,1,1,0,1,0,0,
	| 0,0,0,0,0,1,1,2,0,0,3,0,
	| 0,0,0,0,0,1,0,1,2,0,1,0,
	| 0,0,0,0,0,1,1,1,0,2,1,0,
	| 0,0,0,0,0,0,1,1,0,0,0,0,
	| 0,0,0,0,0,0,0,0,2,0,0,0,
	| 0,0,1,0,0,1,0,1,0,0,0,0,
	| 0,0,0,0,0,0,0,2,0,0,0,0,
	| 0,0,2,0,0,0,0,1,0,0,1,0,
	| 0,0,1,0,1,1,1,1,0,0,0,0,
	| 0,0,0,1,0,1,0,1,1,0,0,0,
	| 0,1,0,0,0,1,0,2,1,0,2,0,
	| 0,0,1,0,1,2,1,1,0,0,1,0,
	| 0,0,0,0,1,0,0,1,1,1,0,0,
	| 0,0,0,0,0,0,0,0,1,0,1,0,
	| 0,0,0,0,0,2,1,1,1,0,1,0,
	| 0,0,1,0,0,1,0,1,0,0,0,0,
	| 0,0,1,0,0,1,1,1,1,0,1,0,
	| 0,0,0,0,0,1,1,3,0,0,0,0,
	| 0,0,0,0,0,0,0,2,0,1,0,0,
	| 0,0,0,0,0,3,2,0,2,0,0,0,
	| 1,0,0,0,1,0,1,0,2,0,2,0,
	| 0,0,0,0,0,1,0,0,0,1,0,0,
	| 0,0,0,0,0,1,1,0,0,0,0,0,
	| 0,0,0,0,0,2,0,0,1,0,1,0,
	| 0,0,0,0,0,0,1,1,1,0,0,0,
	| 0,0,1,1,0,1,0,0,1,1,2,0,
	| 0,0,0,0,1,2,1,1,1,0,0,0,
	| 0,0,1,0,0,0,1,1,0,1,0,0,
	| 0,1,1,1,0,1,0,1,0,1,0,0,
	| 0,0,0,0,0,0,0,0,0,1,1,0,
	| 0,0,0,0,1,1,0,1,2,0,1,0,
	| 0,0,0,0,0,1,0,0,1,1,1,0,
	| 0,0,0,1,1,0,0,1,0,0,0,0,
	| 0,0,0,0,0,0,0,0,0,0,0,0, |];

% SumOfsreq = 378;

nResources = 23;
mastery = [| false,false,false,false,false,false,true,true,true,false,false,false,
	| false,false,false,false,false,false,false,false,false,false,true,true,
	| false,false,true,false,false,false,false,false,false,false,false,false,
	| false,false,false,false,false,false,false,false,false,true,true,true,
	| false,false,false,false,false,false,true,true,true,false,false,false,
	| false,false,false,false,false,false,true,true,true,false,false,false,
	| false,false,false,false,false,false,false,false,true,false,false,false,
	| false,false,false,true,true,true,false,false,false,false,false,false,
	| false,false,false,false,false,false,false,false,false,false,true,true,
	| false,false,false,false,false,true,false,false,false,false,false,false,
	| false,false,false,false,false,false,true,true,true,true,true,true,
	| true,true,true,true,true,true,false,false,true,true,true,true,
	| false,false,false,false,false,true,false,false,true,false,false,false,
	| false,false,false,false,false,false,true,true,true,false,false,false,
	| false,true,true,false,false,false,false,false,false,false,false,false,
	| false,false,false,true,true,true,false,false,false,false,false,false,
	| false,false,false,false,false,false,false,true,true,false,false,false,
	| false,false,false,false,false,false,false,true,true,false,false,false,
	| false,false,false,false,false,false,false,false,false,true,true,true,
	| false,false,false,true,true,true,false,false,false,false,false,false,
	| false,false,false,false,true,true,false,false,false,false,false,false,
	| false,false,false,false,false,false,true,true,true,false,false,false,
	| false,false,false,false,false,false,false,false,true,false,false,false, |];

nPrecs = 138;
pred = [1,1,1,2,2,2,3,3,4,4,4,5,5,5,6,7,8,8,8,9,10,10,10,11,11,12,12,13,13,14,14,14,15,15,15,16,16,17,18,19,20,20,21,21,22,22,22,23,24,24,24,25,26,27,27,28,28,28,29,30,31,31,31,32,32,32,33,34,34,35,35,36,36,37,38,39,40,41,41,42,43,44,45,46,47,48,49,50,51,51,51,52,52,53,54,55,56,57,58,58,58,59,60,61,61,62,63,64,65,65,66,67,68,69,70,71,72,73,74,75,76,77,77,78,79,80,81,81,82,83,84,85,86,87,88,89,90,91];
succ = [2,3,4,19,21,24,10,32,5,6,8,9,18,7,16,86,11,28,38,21,12,14,15,49,13,33,39,89,20,17,57,60,27,30,31,43,78,50,35,61,22,55,26,47,25,65,23,37,43,67,51,48,29,81,80,82,53,40,80,69,34,83,69,68,36,62,76,41,36,59,70,52,46,57,79,73,62,42,45,44,54,85,79,66,58,84,71,63,52,78,64,72,56,66,88,61,85,59,75,61,71,80,62,74,78,90,87,77,68,72,87,79,71,76,77,86,81,76,87,81,88,89,84,91,84,82,82,86,85,88,90,91,90,91,89,92,92,92];

nUnrels = 3214;
unpred = [2,2,2,2,2,2,2,2,2,2,2,2,2,2,2,2,2,2,2,2,2,2,2,2,2,2,2,2,2,2,2,2,2,2,2,2,2,2,2,2,2,2,2,2,2,2,2,2,2,2,2,2,2,2,2,2,3,3,3,3,3,3,3,3,3,3,3,3,3,3,3,3,3,3,3,3,3,3,3,3,3,3,3,3,3,3,3,3,3,3,3,3,3,3,3,3,3,3,4,4,4,4,4,4,4,4,4,4,4,4,4,4,4,4,4,4,4,4,4,4,4,4,4,4,4,4,4,4,4,4,5,5,5,5,5,5,5,5,5,5,5,5,5,5,5,5,5,5,5,5,5,5,5,5,5,5,5,5,5,5,5,5,5,5,5,5,5,5,5,5,5,5,5,5,5,5,5,5,5,5,5,5,5,5,5,5,5,5,5,6,6,6,6,6,6,6,6,6,6,6,6,6,6,6,6,6,6,6,6,6,6,6,6,6,6,6,6,6,6,6,6,6,6,6,6,6,6,6,6,6,6,6,6,6,6,6,6,6,6,6,6,6,6,6,6,6,6,6,6,6,6,6,6,6,6,6,6,6,6,6,6,6,6,6,6,6,6,7,7,7,7,7,7,7,7,7,7,7,7,7,7,7,7,7,7,7,7,7,7,7,7,7,7,7,7,7,7,7,7,7,7,7,7,7,7,7,7,7,7,7,7,7,7,7,7,7,7,7,7,7,7,7,7,7,7,7,7,7,7,7,7,7,7,7,7,7,7,7,7,7,7,7,7,7,7,7,7,7,7,8,8,8,8,8,8,8,8,8,8,8,8,8,8,8,8,8,8,8,8,8,8,8,8,8,8,8,8,8,8,8,8,8,8,8,8,8,8,8,8,8,8,8,8,8,8,8,9,9,9,9,9,9,9,9,9,9,9,9,9,9,9,9,9,9,9,9,9,9,9,9,9,9,9,9,9,9,9,9,9,9,9,9,9,9,9,9,9,9,9,9,9,9,9,9,9,9,9,9,9,9,9,9,9,9,9,9,9,9,9,9,10,10,10,10,10,10,10,10,10,10,10,10,10,10,10,10,10,10,10,10,10,10,10,10,10,10,10,10,10,10,10,10,10,10,10,10,10,10,10,11,11,11,11,11,11,11,11,11,11,11,11,11,11,11,11,11,11,11,11,11,11,11,11,11,11,11,11,11,11,11,11,11,11,11,11,11,11,11,11,11,11,11,11,11,11,11,11,11,11,11,11,12,12,12,12,12,12,12,12,12,12,12,12,12,12,12,12,12,12,12,12,12,12,12,12,12,12,12,12,12,12,12,12,12,12,12,12,12,12,12,12,12,12,12,12,12,12,12,12,12,12,12,12,12,12,12,12,12,12,12,12,12,12,12,12,12,12,12,12,12,12,12,12,12,13,13,13,13,13,13,13,13,13,13,13,13,13,13,13,13,13,13,13,13,13,13,13,13,13,13,13,13,13,13,13,13,13,13,13,13,13,13,13,13,13,13,13,13,13,13,13,13,13,13,13,13,14,14,14,14,14,14,14,14,14,14,14,14,14,14,14,14,14,14,14,14,14,14,14,14,14,14,14,14,14,14,14,14,14,14,14,14,14,14,14,14,14,14,14,14,14,14,14,14,14,14,14,14,14,14,14,14,14,14,14,14,14,14,14,14,15,15,15,15,15,15,15,15,15,15,15,15,15,15,15,15,15,15,15,15,15,15,15,15,15,15,15,15,15,15,15,15,15,15,15,15,15,15,15,15,15,15,15,15,15,15,15,16,16,16,16,16,16,16,16,16,16,16,16,16,16,16,16,16,16,16,16,16,16,16,16,16,16,16,16,16,16,16,16,16,16,16,16,16,16,16,16,16,16,16,16,16,16,16,16,16,16,16,16,16,16,16,16,16,16,16,16,16,16,16,16,16,16,16,16,16,17,17,17,17,17,17,17,17,17,17,17,17,17,17,17,17,17,17,17,17,17,17,17,17,17,17,17,17,17,17,17,17,17,17,17,17,17,17,17,17,17,17,17,17,17,17,17,17,17,17,17,17,17,17,17,17,17,17,17,17,17,17,17,17,17,17,17,17,17,17,18,18,18,18,18,18,18,18,18,18,18,18,18,18,18,18,18,18,18,18,18,18,18,18,18,18,18,18,18,18,18,18,18,18,18,18,18,18,18,18,18,18,18,18,18,18,18,18,18,18,18,18,18,18,18,18,18,18,18,18,18,18,19,19,19,19,19,19,19,19,19,19,19,19,19,19,19,19,19,19,19,19,19,19,19,19,19,19,19,19,19,19,19,19,19,19,19,19,19,19,19,19,19,19,19,19,19,19,19,19,19,19,19,19,19,19,19,19,19,19,19,19,19,19,19,19,19,19,19,20,20,20,20,20,20,20,20,20,20,20,20,20,20,20,20,20,20,20,20,20,20,20,20,20,20,20,20,20,20,20,20,20,20,20,20,20,20,20,20,20,20,20,20,20,20,20,21,21,21,21,21,21,21,21,21,21,21,21,21,21,21,21,21,21,21,21,21,21,21,21,21,21,21,21,21,21,21,21,21,21,21,21,21,21,21,21,21,21,21,21,21,21,21,21,21,21,21,21,21,22,22,22,22,22,22,22,22,22,22,22,22,22,22,22,22,22,22,22,22,22,22,22,22,22,22,22,22,22,22,22,22,22,22,22,22,22,22,22,22,22,22,22,22,22,22,22,22,22,22,22,23,23,23,23,23,23,23,23,23,23,23,23,23,23,23,23,23,23,23,23,23,23,23,23,23,23,23,23,23,23,23,23,23,23,23,23,23,23,23,23,23,23,23,23,23,23,23,23,23,23,23,23,23,23,23,23,23,23,23,23,23,24,24,24,24,24,24,24,24,24,24,24,24,24,24,24,24,24,24,24,24,24,24,24,24,24,24,24,24,24,24,24,24,24,24,24,24,24,24,24,24,24,24,24,24,24,24,24,25,25,25,25,25,25,25,25,25,25,25,25,25,25,25,25,25,25,25,25,25,25,25,25,25,25,25,25,25,25,25,25,25,25,25,25,25,25,25,25,25,25,25,25,25,25,25,25,25,25,25,25,25,25,25,25,25,25,25,25,25,25,25,26,26,26,26,26,26,26,26,26,26,26,26,26,26,26,26,26,26,26,26,26,26,26,26,26,26,26,26,26,26,26,26,26,26,26,26,26,26,26,26,26,26,26,26,26,26,26,26,26,26,26,26,26,26,26,26,26,26,26,26,27,27,27,27,27,27,27,27,27,27,27,27,27,27,27,27,27,27,27,27,27,27,27,27,27,27,27,27,27,27,27,27,27,27,27,27,27,27,27,27,27,27,27,27,27,27,27,27,27,27,27,27,27,27,27,27,27,28,28,28,28,28,28,28,28,28,28,28,28,28,28,28,28,28,28,28,28,28,28,28,28,28,28,28,28,28,28,28,28,28,28,28,28,28,28,28,28,28,28,28,28,28,28,28,28,28,28,28,28,28,28,29,29,29,29,29,29,29,29,29,29,29,29,29,29,29,29,29,29,29,29,29,29,29,29,29,29,29,29,29,29,29,29,29,29,29,29,29,29,29,29,29,29,29,29,29,29,29,29,29,29,29,29,29,29,29,29,29,29,30,30,30,30,30,30,30,30,30,30,30,30,30,30,30,30,30,30,30,30,30,30,30,30,30,30,30,30,30,30,30,30,30,30,30,30,30,30,30,30,30,30,30,30,30,30,30,30,30,30,30,30,30,30,30,30,30,31,31,31,31,31,31,31,31,31,31,31,31,31,31,31,31,31,31,31,31,31,31,31,31,31,31,31,31,31,31,31,31,31,31,31,32,32,32,32,32,32,32,32,32,32,32,32,32,32,32,32,32,32,32,32,32,32,32,32,32,32,32,32,32,32,32,32,32,32,32,32,32,32,32,32,32,32,32,33,33,33,33,33,33,33,33,33,33,33,33,33,33,33,33,33,33,33,33,33,33,33,33,33,33,33,33,33,33,33,33,33,33,33,33,33,33,33,33,33,33,33,33,33,33,33,33,33,33,33,33,33,33,33,34,34,34,34,34,34,34,34,34,34,34,34,34,34,34,34,34,34,34,34,34,34,34,34,34,34,34,34,34,34,34,34,34,34,34,34,34,34,35,35,35,35,35,35,35,35,35,35,35,35,35,35,35,35,35,35,35,35,35,35,35,35,35,35,35,35,35,35,35,35,35,35,35,35,35,35,35,35,35,35,35,35,35,35,36,36,36,36,36,36,36,36,36,36,36,36,36,36,36,36,36,36,36,36,36,36,36,36,36,36,36,36,36,36,36,36,36,36,36,36,36,36,36,36,36,36,36,37,37,37,37,37,37,37,37,37,37,37,37,37,37,37,37,37,37,37,37,37,37,37,37,37,37,37,37,37,37,37,37,37,37,37,37,37,37,37,37,37,37,37,37,37,37,37,37,38,38,38,38,38,38,38,38,38,38,38,38,38,38,38,38,38,38,38,38,38,38,38,38,38,38,38,38,38,38,38,38,38,38,38,38,38,38,38,38,38,38,38,38,38,38,38,38,38,38,39,39,39,39,39,39,39,39,39,39,39,39,39,39,39,39,39,39,39,39,39,39,39,39,39,39,39,39,39,39,39,39,39,39,39,39,39,39,39,39,39,39,39,39,39,39,39,39,40,40,40,40,40,40,40,40,40,40,40,40,40,40,40,40,40,40,40,40,40,40,40,40,40,40,40,40,40,40,40,40,40,40,40,40,40,40,40,40,40,40,40,40,40,40,40,40,40,41,41,41,41,41,41,41,41,41,41,41,41,41,41,41,41,41,41,41,41,41,41,41,41,41,41,41,41,41,41,41,41,41,41,41,41,41,41,41,41,41,41,42,42,42,42,42,42,42,42,42,42,42,42,42,42,42,42,42,42,42,42,42,42,42,42,42,42,42,42,42,42,42,42,42,42,42,42,42,42,42,42,42,42,42,42,42,42,43,43,43,43,43,43,43,43,43,43,43,43,43,43,43,43,43,43,43,43,43,43,43,43,43,43,43,43,43,43,43,43,43,43,43,43,43,43,43,43,43,43,43,43,43,44,44,44,44,44,44,44,44,44,44,44,44,44,44,44,44,44,44,44,44,44,44,44,44,44,44,44,44,44,44,44,44,44,44,44,44,44,44,44,44,44,44,44,44,44,45,45,45,45,45,45,45,45,45,45,45,45,45,45,45,45,45,45,45,45,45,45,45,45,45,45,45,45,45,45,45,45,45,45,45,45,45,45,45,45,45,45,45,46,46,46,46,46,46,46,46,46,46,46,46,46,46,46,46,46,46,46,46,46,46,46,46,46,46,46,46,46,46,46,46,46,46,46,46,46,46,46,46,46,46,47,47,47,47,47,47,47,47,47,47,47,47,47,47,47,47,47,47,47,47,47,47,47,47,47,47,47,47,47,47,47,48,48,48,48,48,48,48,48,48,48,48,48,48,48,48,48,48,48,48,48,48,48,48,48,48,48,48,48,48,48,48,48,48,48,48,48,48,48,48,48,48,49,49,49,49,49,49,49,49,49,49,49,49,49,49,49,49,49,49,49,49,49,49,49,49,49,49,49,49,49,49,49,49,49,49,49,49,49,49,49,50,50,50,50,50,50,50,50,50,50,50,50,50,50,50,50,50,50,50,50,50,50,50,50,50,50,50,50,50,50,50,50,50,50,50,50,50,50,51,51,51,51,51,51,51,51,51,51,51,51,51,51,51,51,51,51,51,51,51,51,51,51,51,51,52,52,52,52,52,52,52,52,52,52,52,52,52,52,52,52,52,52,52,52,52,52,52,52,52,52,52,52,52,52,52,53,53,53,53,53,53,53,53,53,53,53,53,53,53,53,53,53,53,53,53,53,53,53,53,53,53,53,53,53,53,53,53,53,53,53,54,54,54,54,54,54,54,54,54,54,54,54,54,54,54,54,54,54,54,54,54,54,54,54,54,54,54,54,54,54,54,54,54,54,54,55,55,55,55,55,55,55,55,55,55,55,55,55,55,55,55,55,55,55,55,55,55,55,55,55,55,55,55,55,55,55,56,56,56,56,56,56,56,56,56,56,56,56,56,56,56,56,56,56,56,56,56,56,56,56,56,56,56,56,56,56,56,56,56,57,57,57,57,57,57,57,57,57,57,57,57,57,57,57,57,57,57,57,57,57,57,57,57,57,57,57,57,57,58,58,58,58,58,58,58,58,58,58,58,58,58,58,58,58,58,58,58,58,58,59,59,59,59,59,59,59,59,59,59,59,59,59,59,59,59,59,59,59,59,59,59,59,59,59,59,59,59,60,60,60,60,60,60,60,60,60,60,60,60,60,60,60,60,60,60,60,60,60,60,60,60,60,60,60,60,60,61,61,61,61,61,61,61,61,61,61,61,61,61,61,61,61,61,61,61,61,61,61,61,61,61,61,62,62,62,62,62,62,62,62,62,62,62,62,62,62,62,62,62,62,62,62,62,62,62,62,62,62,62,62,63,63,63,63,63,63,63,63,63,63,63,63,63,63,63,63,63,63,63,63,63,63,63,63,63,63,64,64,64,64,64,64,64,64,64,64,64,64,64,64,64,64,64,64,64,64,64,64,64,65,65,65,65,65,65,65,65,65,65,65,65,65,65,65,65,65,66,66,66,66,66,66,66,66,66,66,66,66,66,66,66,66,66,66,66,66,66,66,66,67,67,67,67,67,67,67,67,67,67,67,67,67,67,67,67,67,67,67,67,67,68,68,68,68,68,68,68,68,68,68,68,68,68,68,68,68,68,68,68,68,69,69,69,69,69,69,69,69,69,69,69,69,69,69,69,69,69,69,69,70,70,70,70,70,70,70,70,70,70,70,70,70,70,70,70,70,71,71,71,71,71,71,71,71,71,71,71,71,71,71,71,71,71,71,72,72,72,72,72,72,72,72,72,72,72,72,72,73,73,73,73,73,73,73,73,73,73,73,73,73,73,73,74,74,74,74,74,74,74,74,74,74,74,74,74,74,74,75,75,75,75,75,75,75,75,75,75,76,76,76,76,76,76,76,76,76,76,76,76,76,77,77,77,77,77,77,77,77,77,77,77,78,78,78,78,78,78,78,78,78,78,78,78,79,79,79,79,79,79,79,79,79,79,80,80,80,80,80,80,80,80,81,81,81,81,81,82,82,82,82,82,82,82,83,83,83,83,83,83,84,84,84,84,84,84,85,85,85,85,85,86,86,86,86,87,87,87,88,88,89,89,90];
unsucc = [3,4,5,6,7,8,9,10,11,12,13,14,15,16,17,18,20,22,23,25,27,28,30,31,32,33,34,35,36,37,38,39,40,41,42,44,45,46,48,49,50,53,55,57,59,60,62,63,65,66,68,69,70,73,76,83,4,5,6,7,8,9,11,13,16,18,19,20,21,22,23,24,25,26,28,29,35,37,38,40,43,47,48,49,51,53,54,55,58,61,64,65,67,70,74,75,77,78,10,12,14,15,17,19,24,27,30,31,32,33,34,36,39,41,42,44,45,46,50,51,52,56,60,63,64,67,69,73,76,83,6,8,10,11,12,13,14,15,16,17,19,20,22,23,24,25,27,28,30,31,32,33,34,36,37,38,39,40,41,42,43,44,45,46,48,49,50,51,52,53,54,55,56,57,60,62,63,64,65,66,67,68,69,72,73,76,79,83,88,7,8,9,10,11,12,13,14,15,17,18,19,20,21,22,23,24,25,26,27,28,29,30,31,32,33,34,35,36,37,38,39,40,41,42,44,45,46,47,48,49,50,51,52,53,55,56,57,58,59,60,61,62,63,64,65,66,67,68,69,70,71,72,73,74,75,76,77,79,80,81,82,83,84,85,86,87,90,8,9,10,11,12,13,14,15,16,17,18,19,20,21,22,23,24,25,26,27,28,29,30,31,32,33,34,35,36,37,38,39,40,41,42,43,44,45,46,47,48,49,50,51,52,53,54,55,56,57,58,59,60,61,62,63,64,65,66,67,68,69,70,71,72,73,74,75,76,77,78,79,80,81,82,83,84,85,87,88,89,91,9,10,12,14,15,16,17,18,19,21,24,26,27,29,30,31,32,33,34,35,36,39,41,42,43,44,45,46,47,50,51,52,54,56,58,60,63,64,67,69,70,73,75,76,77,83,88,10,11,12,13,14,15,16,17,18,19,20,22,23,24,25,27,28,30,31,32,33,34,35,36,37,38,39,40,41,42,43,44,45,46,48,49,50,51,52,53,54,55,56,57,59,60,62,63,64,65,66,67,68,69,70,72,73,76,77,79,83,84,88,89,11,13,16,18,19,20,21,22,23,24,25,26,28,29,32,35,37,38,40,43,47,48,49,51,53,54,55,58,61,64,65,67,68,70,71,74,75,77,78,12,14,15,16,17,18,19,21,24,26,27,28,29,30,31,32,33,34,35,36,38,39,40,41,42,43,44,45,46,47,50,51,52,53,54,56,58,60,62,63,64,66,67,69,70,73,75,76,77,79,83,88,13,14,15,16,17,18,19,20,21,22,23,24,25,26,27,28,29,30,31,32,34,35,36,37,38,40,41,42,43,44,45,46,47,48,49,50,51,52,53,54,55,56,57,58,59,60,61,62,63,64,65,66,67,68,69,70,71,72,74,75,77,78,79,80,81,82,83,84,85,86,87,90,91,14,15,16,17,18,19,21,24,26,27,28,29,30,31,32,33,34,35,36,38,39,40,41,42,43,44,45,46,47,49,50,51,52,53,54,56,58,60,62,63,64,66,67,69,70,73,75,76,77,79,83,88,15,16,18,19,20,21,22,23,24,25,26,27,28,29,30,31,32,33,34,35,36,37,38,39,40,41,42,43,44,45,46,47,48,49,51,52,53,54,55,56,58,61,64,65,66,67,68,69,70,71,72,73,74,75,76,77,78,79,81,83,84,86,88,89,16,17,18,19,20,21,22,23,24,25,26,28,29,32,33,35,37,38,39,40,43,47,48,49,50,51,53,54,55,57,58,59,60,61,62,63,64,65,67,68,70,71,73,74,75,77,78,17,18,19,20,21,22,23,24,25,26,27,28,29,30,31,32,33,34,35,36,37,38,39,40,41,42,44,45,46,47,48,49,50,51,52,53,55,56,57,58,59,60,61,62,63,64,65,66,67,68,69,70,71,72,73,74,75,76,77,79,80,81,82,83,84,85,86,87,90,18,19,20,21,22,23,24,25,26,27,28,29,30,31,32,33,34,35,36,37,38,39,40,41,42,43,44,45,46,47,48,49,51,52,53,54,55,56,57,58,59,60,61,62,64,65,66,67,68,69,70,71,72,73,74,75,76,77,78,79,80,81,82,83,84,85,86,88,89,90,19,20,21,22,23,24,25,26,27,28,29,30,31,32,33,34,36,37,38,39,40,41,42,43,44,45,46,47,48,49,50,51,52,53,54,55,56,57,58,60,61,62,63,64,65,66,67,68,69,71,72,73,74,75,76,78,79,81,83,86,87,88,20,21,22,23,24,25,26,27,28,29,30,31,32,33,34,35,36,37,38,39,40,41,42,43,44,45,46,47,48,49,50,51,52,53,54,55,56,57,58,59,60,62,63,64,65,66,67,68,69,70,71,72,73,75,76,77,79,80,81,82,83,84,85,86,88,89,90,21,24,26,27,28,29,30,31,32,33,34,35,36,38,39,40,41,42,43,44,45,46,47,49,50,51,52,53,54,56,58,60,62,63,64,66,67,69,70,73,75,76,77,79,83,88,89,22,23,24,25,27,28,30,31,32,33,34,35,36,37,38,39,40,41,42,43,44,45,46,48,49,50,51,52,53,54,55,56,57,59,60,62,63,64,65,66,67,68,69,70,72,73,76,77,79,83,84,88,89,24,26,27,28,29,30,31,32,33,34,35,36,38,39,40,41,42,43,44,45,46,47,49,50,51,52,53,54,55,56,58,60,61,62,63,64,66,67,69,70,73,74,75,76,77,78,79,83,87,88,89,24,25,26,27,28,29,30,31,32,33,34,35,36,38,39,40,41,42,43,44,45,46,47,48,49,50,51,52,53,54,55,56,58,60,61,62,63,64,65,66,67,68,69,70,71,72,73,74,75,76,77,78,79,81,83,84,86,87,88,89,90,25,26,27,28,29,30,31,32,33,34,35,36,37,38,39,40,41,42,44,45,46,47,48,49,50,53,55,57,58,59,60,61,62,63,65,66,68,69,70,71,73,74,75,76,80,83,87,26,27,28,29,30,31,32,33,34,35,36,37,38,39,40,41,42,43,44,45,46,47,49,50,51,52,53,54,55,56,57,58,59,60,61,62,63,64,65,66,67,68,69,70,71,72,73,74,75,76,77,78,79,80,81,82,83,85,86,87,88,89,91,27,28,30,31,32,33,34,35,36,37,38,39,40,41,42,43,44,45,46,47,48,49,50,51,52,53,54,55,56,57,58,59,60,61,62,63,64,65,66,67,68,69,70,71,72,73,74,75,76,77,78,79,81,83,84,86,87,88,89,90,28,29,30,31,32,33,34,35,36,37,38,39,40,41,42,43,44,45,46,47,48,49,50,51,52,53,54,55,56,57,58,59,60,61,62,63,64,65,66,67,68,69,70,71,72,73,74,75,76,77,78,79,83,84,87,88,89,29,30,31,32,33,34,35,36,37,38,39,41,42,43,44,45,46,47,48,49,50,51,52,54,55,56,57,58,59,60,61,63,64,65,67,68,69,70,71,72,73,74,75,76,77,78,79,80,81,83,84,86,88,89,30,31,32,33,34,35,36,37,38,39,40,41,42,43,44,45,46,47,48,49,50,51,52,53,54,55,56,57,58,59,60,61,62,63,64,65,66,67,68,69,70,71,72,73,74,75,76,77,78,79,81,83,84,86,87,88,89,90,31,32,33,34,35,36,37,38,39,40,41,42,43,44,45,46,47,48,49,50,51,52,53,54,55,56,57,58,59,60,61,62,63,64,65,66,67,68,70,71,72,73,74,75,77,78,79,80,81,82,83,84,85,86,87,90,91,32,33,35,37,38,39,40,43,47,48,49,50,51,53,54,55,57,58,59,60,61,62,63,64,65,67,68,70,71,73,74,75,77,78,80,33,34,35,37,38,39,40,41,42,43,44,45,47,48,49,50,51,53,54,55,57,58,59,60,61,63,64,65,67,69,70,73,74,75,76,77,78,79,80,83,84,88,89,34,35,36,37,38,39,40,41,42,43,44,45,46,47,48,49,50,51,52,53,54,55,56,57,58,59,60,61,62,63,64,65,66,67,68,69,70,71,72,73,74,75,77,78,79,80,81,82,83,84,85,86,87,90,91,35,37,38,39,40,43,47,48,49,50,51,53,54,55,57,58,59,60,61,62,63,64,65,67,68,69,70,71,73,74,75,76,77,78,80,83,88,89,36,37,38,39,40,41,42,43,44,45,46,47,48,49,50,51,52,53,54,55,56,57,58,60,61,62,63,64,65,66,67,68,69,71,72,73,74,75,76,78,79,81,83,86,87,88,37,38,39,40,41,42,43,44,45,47,48,49,50,51,53,54,55,57,58,59,60,61,62,63,64,65,67,68,69,70,71,73,74,75,76,77,78,79,80,83,84,88,89,38,39,40,41,42,43,44,45,46,47,48,49,50,51,52,53,54,55,56,58,60,61,62,63,64,65,66,67,68,69,70,71,72,73,74,75,76,77,78,79,81,83,84,86,87,88,89,90,39,40,41,42,43,44,45,46,47,48,49,50,51,52,53,54,55,56,57,58,59,60,61,62,63,64,65,66,67,68,69,70,71,72,73,74,75,76,77,78,80,81,82,83,85,86,87,88,89,91,40,41,42,43,44,45,46,47,48,49,50,51,52,53,54,55,56,57,58,59,60,61,62,63,64,65,66,67,68,69,70,71,72,74,75,77,78,79,80,81,82,83,84,85,86,87,90,91,41,42,43,44,45,46,47,48,49,50,51,52,53,54,55,56,57,58,59,60,61,63,64,65,66,67,68,69,70,71,72,73,74,75,76,77,78,79,80,81,82,83,84,85,86,87,88,89,91,43,46,47,48,49,50,51,52,53,54,55,56,57,58,59,60,61,62,63,64,65,66,67,68,69,70,71,72,73,74,75,76,77,78,80,81,82,83,86,87,88,89,43,45,46,47,48,49,50,51,52,53,54,55,56,57,58,59,60,61,62,63,64,65,66,67,68,69,70,71,72,73,74,75,76,77,78,79,80,81,82,83,84,86,87,88,89,90,44,45,46,47,48,49,50,51,52,53,55,56,57,58,59,60,61,62,63,64,65,66,67,68,69,70,71,72,73,74,75,76,77,78,79,80,81,82,83,84,85,86,87,90,91,45,46,47,48,49,50,51,52,53,54,55,56,57,58,59,60,61,62,63,64,65,66,67,68,69,70,71,72,73,74,75,76,77,78,79,80,81,82,83,84,86,87,88,89,90,46,47,48,49,50,51,52,53,54,55,56,57,58,59,60,61,62,63,64,65,66,67,68,69,70,71,72,73,74,75,76,77,78,80,81,82,83,85,86,87,88,89,91,47,48,49,50,51,52,53,54,55,56,57,58,59,60,61,62,63,64,65,67,68,69,70,71,72,73,74,75,76,77,78,79,80,81,82,83,84,85,86,88,89,90,48,49,50,51,52,53,54,55,56,57,59,60,62,63,64,65,66,67,68,69,70,72,73,76,77,79,80,83,84,88,89,49,50,51,52,53,54,55,56,57,58,59,60,61,62,63,64,65,66,67,68,69,70,71,72,73,74,75,76,77,78,79,80,81,82,83,85,86,87,88,89,91,50,51,52,53,54,55,56,57,58,59,60,61,62,63,64,65,66,67,68,69,70,72,73,74,75,76,77,78,79,80,81,82,83,84,85,87,88,89,91,51,52,53,54,55,56,57,58,59,60,61,62,64,65,66,67,68,69,70,71,72,73,74,75,76,77,78,79,80,81,82,83,84,85,86,88,89,90,53,54,55,57,58,59,60,61,62,63,65,66,67,68,69,70,71,73,74,75,76,79,80,83,87,88,53,54,55,57,58,59,60,61,62,63,64,65,66,67,68,69,70,71,73,74,75,76,77,78,79,80,83,84,87,88,89,54,55,56,57,58,59,60,61,62,63,64,65,67,68,69,70,71,72,73,74,75,76,77,78,79,80,81,82,83,84,85,86,88,89,90,55,56,57,58,59,60,61,62,63,64,65,66,67,68,69,70,71,72,73,74,75,76,77,78,79,80,81,82,83,84,85,86,87,90,91,56,57,58,59,60,62,63,64,65,66,67,68,69,70,71,72,73,75,76,77,79,80,81,82,83,84,85,86,88,89,90,57,58,59,60,61,62,63,64,65,66,67,68,69,70,71,72,73,74,75,76,77,78,79,80,81,82,83,84,86,87,88,89,90,58,60,61,62,63,64,65,66,67,68,69,70,71,72,73,74,75,76,77,78,79,81,83,84,86,87,88,89,90,59,60,62,63,64,65,66,67,68,69,70,72,73,76,77,79,80,83,84,88,89,60,61,62,63,64,65,66,67,68,69,70,71,72,73,74,75,76,77,78,79,81,83,84,86,87,88,89,90,61,63,64,65,66,67,68,69,70,71,72,73,74,75,76,77,78,79,80,81,82,83,84,85,86,87,88,89,91,62,63,64,65,66,67,68,69,70,71,72,73,75,76,77,79,80,81,82,83,84,85,86,88,89,90,63,64,65,66,67,68,69,70,71,72,73,74,75,76,77,78,79,80,81,82,83,84,85,86,87,88,89,91,64,65,66,67,68,69,70,71,72,73,74,75,76,77,78,79,80,81,82,83,84,85,86,88,89,90,65,66,67,68,69,70,71,72,73,74,75,76,78,79,80,81,82,83,85,86,87,88,91,66,67,69,70,73,74,75,76,77,78,79,80,83,84,87,88,89,67,68,69,70,71,72,73,74,75,76,77,78,79,80,81,82,83,84,85,86,88,89,90,68,69,70,71,72,73,74,75,76,77,78,80,81,82,83,85,86,87,88,89,91,69,70,72,73,74,75,76,77,78,79,80,81,82,83,84,85,87,88,89,91,70,71,72,73,74,75,77,78,79,80,81,82,83,84,85,86,87,90,91,71,72,73,74,75,76,78,79,80,81,82,83,85,86,87,88,91,72,73,74,75,76,77,78,79,80,81,82,83,84,85,87,88,89,91,73,74,75,76,77,78,79,80,83,84,87,88,89,74,75,77,78,79,80,81,82,83,84,85,86,87,90,91,75,76,77,78,79,80,81,82,83,84,85,86,88,89,90,76,77,78,79,80,83,84,87,88,89,77,78,79,80,81,82,83,84,85,86,87,90,91,78,79,80,81,82,83,85,86,87,88,91,79,80,81,82,83,84,85,86,87,88,89,90,80,81,82,83,85,86,87,88,89,91,81,83,84,86,87,88,89,90,83,84,87,88,89,83,84,86,87,88,89,90,84,85,86,87,90,91,85,86,87,88,89,91,86,87,88,89,90,87,88,89,91,88,89,90,90,91,90,91,91];

USEFUL_RES = [{},
	{1,2,4,5,6,7,8,9,10,11,12,13,14,16,17,18,19,20,21,22,23},
	{1,5,6,7,11,12,13,14,17,18,22,23},
	{1,2,4,5,6,7,9,11,12,13,14,17,18,19,22,23},
	{1,3,5,6,8,10,11,12,13,14,15,16,20,21,22},
	{1,5,6,7,8,10,11,12,13,14,16,17,18,20,21,22,23},
	{1,3,5,6,8,10,11,12,13,14,15,16,17,18,20,21,22},
	{1,2,4,5,6,7,8,9,10,11,12,13,14,16,17,18,19,20,21,22,23},
	{1,3,5,6,7,11,12,13,14,15,17,18,22,23},
	{2,4,9,11,12,19},
	{1,2,4,5,6,8,9,10,11,12,13,14,16,17,18,19,20,21,22},
	{1,2,3,4,5,6,7,8,9,10,11,12,13,14,15,16,17,18,19,20,21,22,23},
	{1,2,4,5,6,9,11,12,14,17,18,19,22},
	{1,2,4,5,6,7,8,9,10,11,12,13,14,16,17,18,19,20,21,22,23},
	{1,4,5,6,7,8,10,11,12,13,14,15,16,17,18,19,20,21,22,23},
	{1,2,3,4,5,6,8,9,10,11,12,13,14,15,16,17,18,19,20,21,22},
	{1,2,4,5,6,7,8,9,10,11,12,13,14,16,17,18,19,20,21,22,23},
	{1,5,6,7,8,10,11,12,13,14,16,17,18,20,21,22,23},
	{1,5,6,7,8,10,11,12,13,14,16,17,18,20,21,22,23},
	{3,8,12,15,16,20},
	{1,2,3,4,5,6,8,9,11,12,14,15,16,17,18,19,20,21,22},
	{1,2,4,5,6,7,9,11,12,13,14,17,18,19,22,23},
	{1,2,4,5,6,9,11,12,14,17,18,19,22},
	{8,12,15,16,20},
	{1,3,5,6,7,8,10,11,12,13,14,15,16,17,18,20,21,22,23},
	{1,5,6,7,8,11,12,13,14,16,17,18,20,21,22,23},
	{1,5,6,7,8,11,12,13,14,16,17,18,20,21,22,23},
	{1,5,6,7,11,12,13,14,17,18,22,23},
	{8,10,12,13,15,16,20,21},
	{8,10,12,13,16,20,21},
	{1,5,6,7,11,12,13,14,17,18,22,23},
	{1,4,5,6,7,8,10,11,12,13,14,15,16,17,18,19,20,21,22,23},
	{1,2,3,4,5,6,7,8,9,10,11,12,13,14,15,16,17,18,19,20,21,22,23},
	{1,3,5,6,7,8,10,11,12,13,14,15,16,17,18,20,21,22,23},
	{1,5,6,7,8,10,11,12,13,14,16,17,18,20,21,22,23},
	{1,2,3,4,5,6,7,8,9,10,11,12,13,14,15,16,17,18,19,20,21,22,23},
	{1,3,5,6,7,8,11,12,13,14,15,16,17,18,20,22,23},
	{1,3,5,6,7,8,10,11,12,13,14,15,16,17,18,20,21,22,23},
	{1,2,4,5,6,7,8,9,10,11,12,13,14,16,17,18,19,20,21,22,23},
	{2,3,4,8,9,10,11,12,13,15,16,19,20,21},
	{2,4,9,11,12,15,19},
	{2,3,4,8,9,10,11,12,13,15,16,19,20,21},
	{1,3,5,6,7,8,10,11,12,13,14,15,16,17,18,20,21,22,23},
	{1,2,3,4,5,6,7,8,9,10,11,12,13,14,15,16,17,18,19,20,21,22,23},
	{1,2,4,5,6,7,8,9,10,11,12,13,14,16,17,18,19,20,21,22,23},
	{1,5,6,7,8,11,12,13,14,16,17,18,20,22,23},
	{1,2,3,4,5,6,7,8,9,10,11,12,13,14,15,16,17,18,19,20,21,22,23},
	{1,5,6,11,14,17,18,22},
	{1,4,5,6,8,11,12,14,15,16,17,18,19,20,21,22},
	{2,4,8,9,10,11,12,13,16,19,20,21},
	{1,5,6,7,11,12,13,14,17,18,22,23},
	{3,8,12,15,16,20,21},
	{1,2,4,5,6,7,8,9,11,12,13,14,16,17,18,19,20,22,23},
	{1,5,6,7,8,10,11,12,13,14,16,17,18,20,21,22,23},
	{1,5,6,7,11,12,13,14,17,18,22,23},
	{2,4,8,9,10,11,12,13,16,19,20,21},
	{1,3,5,6,11,12,14,15,22},
	{1,3,4,5,6,8,11,12,14,15,16,17,18,19,20,21,22},
	{1,2,4,5,6,8,9,10,11,12,13,14,16,17,18,19,20,21,22},
	{1,2,4,5,6,7,8,9,10,11,12,13,14,16,17,18,19,20,21,22,23},
	{1,2,4,5,6,8,9,10,11,12,13,14,16,17,18,19,20,21,22},
	{1,5,6,11,14,17,18,22},
	{1,5,6,7,11,12,13,14,17,18,22,23},
	{1,3,5,6,8,10,11,12,13,14,15,16,17,18,20,21,22},
	{1,5,6,11,14,17,18,22},
	{1,2,3,4,5,6,9,11,12,14,15,17,18,19,22},
	{1,3,5,6,8,10,11,12,13,14,15,16,17,18,20,21,22},
	{1,5,6,7,8,10,11,12,13,14,16,17,18,20,21,22,23},
	{1,2,4,5,6,7,8,9,10,11,12,13,14,15,16,17,18,19,20,21,22,23},
	{1,2,3,4,5,6,8,9,10,11,12,13,14,15,16,17,18,19,20,21,22},
	{1,4,5,6,7,8,11,12,13,14,16,17,18,19,20,21,22,23},
	{1,2,4,5,6,7,9,11,12,13,14,17,18,19,22,23},
	{1,2,4,5,6,7,8,9,10,11,12,13,14,16,17,18,19,20,21,22,23},
	{1,3,5,6,8,10,11,12,13,14,15,16,17,18,20,21,22},
	{1,2,3,4,5,6,7,8,9,10,11,12,13,14,15,16,17,18,19,20,21,22,23},
	{1,5,6,8,10,11,12,13,14,16,17,18,20,21,22},
	{1,4,5,6,11,12,14,17,18,19,22},
	{1,5,6,7,8,10,11,12,13,14,16,17,18,20,21,22,23},
	{1,2,4,5,6,7,8,9,11,12,13,14,16,17,18,19,20,21,22,23},
	{4,8,10,11,12,13,16,19,20,21},
	{1,5,6,8,10,11,12,13,14,16,20,21,22},
	{1,2,4,5,6,7,8,9,10,11,12,13,14,16,17,18,19,20,21,22,23},
	{1,5,6,7,11,12,13,14,17,18,22,23},
	{1,2,3,4,5,6,7,8,9,10,11,12,13,14,15,16,17,18,19,20,21,22,23},
	{1,5,6,7,8,10,11,12,13,14,16,17,18,20,21,22,23},
	{1,3,4,5,6,11,12,14,15,17,18,19,22},
	{1,3,4,5,6,8,10,11,12,13,14,15,16,17,18,19,20,21,22},
	{2,4,9,11,12,19},
	{1,2,4,5,6,7,8,9,10,11,12,13,14,16,17,18,19,20,21,22,23},
	{1,2,4,5,6,7,8,9,10,11,12,13,14,16,17,18,19,20,21,22,23},
	{1,5,6,8,11,12,14,16,17,18,20,21,22},
	{}];

POTENTIAL_ACT = [{2,3,4,5,6,7,8,9,11,12,13,14,15,16,17,18,19,21,22,23,25,26,27,28,31,32,33,34,35,36,37,38,39,43,44,45,46,47,48,49,51,53,54,55,57,58,59,60,61,62,63,64,65,66,67,68,69,70,71,72,73,74,75,76,77,78,79,81,82,83,84,85,86,87,89,90,91},
	{2,4,8,10,11,12,13,14,16,17,21,22,23,33,36,39,40,41,42,44,45,47,50,53,56,59,60,61,66,69,70,72,73,75,79,82,84,88,89,90},
	{5,7,9,12,16,20,21,25,33,34,36,37,38,40,42,43,44,47,52,57,58,64,66,67,70,74,75,84,86,87},
	{2,4,8,10,11,12,13,14,15,16,17,21,22,23,32,33,36,39,40,41,42,44,45,47,49,50,53,56,58,59,60,61,66,69,70,71,72,73,75,77,79,80,82,84,86,87,88,89,90},
	{2,3,4,5,6,7,8,9,11,12,13,14,15,16,17,18,19,21,22,23,25,26,27,28,31,32,33,34,35,36,37,38,39,43,44,45,46,47,48,49,51,53,54,55,57,58,59,60,61,62,63,64,65,66,67,68,69,70,71,72,73,74,75,76,77,78,79,81,82,83,84,85,86,87,89,90,91},
	{2,3,4,5,6,7,8,9,11,12,13,14,15,16,17,18,19,21,22,23,25,26,27,28,31,32,33,34,35,36,37,38,39,43,44,45,46,47,48,49,51,53,54,55,57,58,59,60,61,62,63,64,65,66,67,68,69,70,71,72,73,74,75,76,77,78,79,81,82,83,84,85,86,87,89,90,91},
	{2,3,4,6,8,9,12,14,15,17,18,19,22,25,26,27,28,31,32,33,34,35,36,37,38,39,43,44,45,46,47,51,53,54,55,60,63,68,69,71,72,73,75,78,79,82,83,84,85,89,90},
	{2,5,6,7,8,11,12,14,15,16,17,18,19,20,21,24,25,26,27,29,30,32,33,34,35,36,37,38,39,40,42,43,44,45,46,47,49,50,52,53,54,56,58,59,60,61,64,67,68,69,70,71,73,74,75,76,78,79,80,81,82,84,85,87,89,90,91},
	{2,4,8,10,11,12,13,14,16,17,21,22,23,33,36,39,40,41,42,44,45,47,50,53,56,59,60,61,66,69,70,72,73,75,79,82,84,88,89,90},
	{2,5,6,7,8,11,12,14,15,16,17,18,19,25,29,30,32,33,34,35,36,38,39,40,42,43,44,45,47,50,54,56,59,60,61,64,67,68,69,70,73,74,75,76,78,80,81,82,84,85,87,89,90},
	{2,3,4,5,6,7,8,9,10,11,12,13,14,15,16,17,18,19,21,22,23,25,26,27,28,31,32,33,34,35,36,37,38,39,40,41,42,43,44,45,46,47,48,49,50,51,53,54,55,56,57,58,59,60,61,62,63,64,65,66,67,68,69,70,71,72,73,74,75,76,77,78,79,80,81,82,83,84,85,86,87,88,89,90,91},
	{2,3,4,5,6,7,8,9,10,11,12,13,14,15,16,17,18,19,20,21,22,23,24,25,26,27,28,29,30,31,32,33,34,35,36,37,38,39,40,41,42,43,44,45,46,47,49,50,51,52,53,54,55,56,57,58,59,60,61,63,64,66,67,68,69,70,71,72,73,74,75,76,77,78,79,80,81,82,83,84,85,86,87,88,89,90,91},
	{2,3,4,5,6,7,8,9,11,12,14,15,16,17,18,19,22,25,26,27,28,29,30,31,32,33,34,35,36,37,38,39,40,42,43,44,45,46,47,50,51,53,54,55,56,59,60,61,63,64,67,68,69,70,71,72,73,74,75,76,78,79,80,81,82,83,84,85,87,89,90},
	{2,3,4,5,6,7,8,9,11,12,13,14,15,16,17,18,19,21,22,23,25,26,27,28,31,32,33,34,35,36,37,38,39,43,44,45,46,47,48,49,51,53,54,55,57,58,59,60,61,62,63,64,65,66,67,68,69,70,71,72,73,74,75,76,77,78,79,81,82,83,84,85,86,87,89,90,91},
	{5,7,9,12,15,16,20,21,24,25,29,32,33,34,36,37,38,40,41,42,43,44,47,49,52,57,58,64,66,67,69,70,74,75,84,86,87},
	{2,5,6,7,8,11,12,14,15,16,17,18,19,20,21,24,25,26,27,29,30,32,33,34,35,36,37,38,39,40,42,43,44,45,46,47,49,50,52,53,54,56,58,59,60,61,64,67,68,69,70,71,73,74,75,76,78,79,80,81,82,84,85,87,89,90,91},
	{2,3,4,6,7,8,9,11,12,13,14,15,16,17,18,19,21,22,23,25,26,27,28,31,32,33,34,35,36,37,38,39,43,44,45,46,47,48,49,51,53,54,55,58,59,60,61,62,63,64,65,66,67,68,69,70,71,72,73,74,75,76,77,78,79,82,83,84,85,86,87,89,90,91},
	{2,3,4,6,7,8,9,11,12,13,14,15,16,17,18,19,21,22,23,25,26,27,28,31,32,33,34,35,36,37,38,39,43,44,45,46,47,48,49,51,53,54,55,58,59,60,61,62,63,64,65,66,67,68,69,70,71,72,73,74,75,76,77,78,79,82,83,84,85,86,87,89,90,91},
	{2,4,8,10,11,12,13,14,15,16,17,21,22,23,32,33,36,39,40,41,42,44,45,47,49,50,53,56,58,59,60,61,66,69,70,71,72,73,75,77,79,80,82,84,86,87,88,89,90},
	{2,5,6,7,8,11,12,14,15,16,17,18,19,20,21,24,25,26,27,29,30,32,33,34,35,36,37,38,39,40,42,43,44,45,46,47,49,50,52,53,54,56,58,59,60,61,64,67,68,69,70,71,73,74,75,76,78,79,80,81,82,84,85,87,89,90,91},
	{2,5,6,7,8,11,12,14,15,16,17,18,19,21,25,26,27,29,30,32,33,34,35,36,38,39,40,42,43,44,45,47,49,50,52,54,56,58,59,60,61,64,67,68,69,70,71,73,74,75,76,78,79,80,81,82,84,85,87,89,90,91},
	{2,3,4,5,6,7,8,9,11,12,13,14,15,16,17,18,19,21,22,23,25,26,27,28,31,32,33,34,35,36,37,38,39,43,44,45,46,47,48,49,51,53,54,55,57,58,59,60,61,62,63,64,65,66,67,68,69,70,71,72,73,74,75,76,77,78,79,81,82,83,84,85,86,87,89,90,91},
	{2,3,4,6,8,9,12,14,15,17,18,19,22,25,26,27,28,31,32,33,34,35,36,37,38,39,43,44,45,46,47,51,53,54,55,60,63,68,69,71,72,73,75,78,79,82,83,84,85,89,90}];
